B300                                    
   1.00000000000000     
    9.2684    0.0000000000000000    0.0000000000000000
     0.0000000000000000   9.2684    0.0000000000000000
     0.0000000000000000    0.0000000000000000   9.2684
   B 
      100
Direct
0.647356 0.64335 0.955104 5 1 1 1
0.476121 0.0844089 0.926646 5 2 2 2
0.61026 0.459313 0.882691 5 3 3 3
0.134942 0.200649 0.995795 5 4 4 4
0.892196 0.567841 0.906446 5 5 5 5
0.289637 0.59167 0.889906 5 6 6 6
0.229734 0.0658341 0.968392 5 7 7 7
0.815387 0.974612 0.947357 5 8 8 8
0.473133 0.940672 0.968144 5 9 9 9
0.0513242 0.728331 0.988005 5 10 10 10
0.304467 0.963896 0.885091 5 11 11 11
0.751687 0.17404 0.935484 5 12 12 12
0.545786 0.23638 0.921249 5 13 13 13
0.926421 0.774024 0.998681 5 14 14 14
0.886946 0.339311 0.919647 5 15 15 15
0.110958 0.872126 0.903824 5 16 16 16
0.180721 0.417376 0.963546 5 17 17 17
0.720487 0.795272 0.916146 5 18 18 18
0.568387 0.628255 0.627772 5 19 19 19
0.108447 0.306917 0.8372 5 20 20 20
0.159974 0.687663 0.184037 5 21 21 21
0.204009 0.0625713 0.508771 5 22 22 22
0.953358 0.898737 0.534553 5 23 23 23
0.337528 0.1779 0.486642 5 24 24 24
0.961337 0.18322 0.845452 5 25 25 25
0.454626 0.970105 0.537599 5 26 26 26
0.614475 0.48146 0.201548 5 27 27 27
0.732085 0.0320563 0.022159 5 28 28 28
0.745508 0.702481 0.475503 5 29 29 29
0.111192 0.434177 0.735543 5 30 30 30
0.88717 0.582456 0.454087 5 31 31 31
0.612014 0.0141727 0.871277 5 32 32 32
0.486574 0.183549 0.411333 5 33 33 33
0.375254 0.861081 0.224824 5 34 34 34
0.466925 0.855521 0.64786 5 35 35 35
0.0731557 0.0430409 0.669079 5 36 36 36
0.336082 0.478821 0.409989 5 37 37 37
0.284213 0.0784886 0.654265 5 38 38 38
0.0875679 0.118155 0.830865 5 39 39 39
0.868582 0.692554 0.300543 5 40 40 40
0.780102 0.471775 0.824978 5 41 41 41
0.468704 0.405953 0.352256 5 42 42 42
0.967728 0.29552 0.677783 5 43 43 43
0.23962 0.588922 0.556231 5 44 44 44
0.489794 0.468793 0.0344187 5 45 45 45
0.840037 0.823505 0.00887157 5 46 46 46
0.0300097 0.962101 0.750742 5 47 47 47
0.665854 0.287914 0.319972 5 48 48 48
0.989419 0.178666 0.304515 5 49 49 49
0.771137 0.371615 0.457852 5 50 50 50
0.90097 0.580917 0.129111 5 51 51 51
0.151091 0.482562 0.423564 5 52 52 52
0.867402 0.0321549 0.480748 5 53 53 53
0.713046 0.758053 0.249304 5 54 54 54
0.37398 0.0381037 0.00898113 5 55 55 55
0.818918 0.0433109 0.845658 5 56 56 56
0.614999 0.897432 0.236717 5 57 57 57
0.422758 0.637376 0.519081 5 58 58 58
0.593733 0.569187 0.438733 5 59 59 59
0.120819 0.263559 0.218367 5 60 60 60
0.164961 0.982042 0.415948 5 61 61 61
0.483301 0.727882 0.303499 5 62 62 62
0.598471 0.111707 0.251632 5 63 63 63
0.26888 0.390454 0.204503 5 64 64 64
0.423767 0.295943 0.186287 5 65 65 65
0.849668 0.1452 0.585449 5 66 66 66
0.0667342 0.330764 0.616191 5 67 67 67
0.020954 0.766113 0.671411 5 68 68 68
0.695082 0.338338 0.146838 5 69 69 69
0.208569 0.751288 0.603887 5 70 70 70
0.907963 0.340863 0.333433 5 71 71 71
0.44443 0.11416 0.168058 5 72 72 72
0.1233 0.61204 0.86146 5 73 73 73
0.398602 0.373256 0.713616 5 74 74 74
0.631089 0.869971 0.780799 5 75 75 75
0.606241 0.840559 0.485384 5 76 76 76
0.699931 0.720584 0.0469178 5 77 77 77
0.163713 0.175801 0.0848924 5 78 78 78
0.467439 0.198092 0.611206 5 79 79 79
0.800417 0.298274 0.00161033 5 80 80 80
0.699101 0.306148 0.839203 5 81 81 81
0.48682 0.928365 0.153837 5 82 82 82
0.173821 0.84117 0.283742 5 83 83 83
0.0992493 0.33997 0.360006 5 84 84 84
0.441894 0.444734 0.861977 5 85 85 85
0.631107 0.215091 0.694756 5 86 86 86
0.431158 0.576415 0.204413 5 87 87 87
0.79861 0.156865 0.231826 5 88 88 88
0.200301 0.968834 0.626736 5 89 89 89
0.0479087 0.844649 0.0892776 5 90 90 90
0.0633309 0.138574 0.353437 5 91 91 91
0.767084 0.946616 0.565027 5 92 92 92
0.166326 0.257179 0.501965 5 93 93 93
0.553017 0.59483 0.797155 5 94 94 94
0.767088 0.331318 0.641019 5 95 95 95
0.110019 0.722252 0.425192 5 96 96 96
0.283089 0.559535 0.131683 5 97 97 97
0.372386 0.0240524 0.357255 5 98 98 98
0.773737 0.497154 0.283495 5 99 99 99
0.282193 0.86894 0.74411 5 100 100 100
